RT is False
Default write of storage_offers_DA.csv just to have a file (but constraint should be inactive)
Reading model...
...model read.
creating competitive generators file...
...competitive generators recorded.
Loading data...
.. day-ahead data with real-time VRE data read.
Compiling instance...
...instance created.
Creating Offer Mitigation (model will solve as dispatch if TRUE)...
Solving...

Welcome to IBM(R) ILOG(R) CPLEX(R) Interactive Optimizer 12.8.0.0
  with Simplex, Mixed Integer & Barrier Optimizers
5725-A06 5725-A29 5724-Y48 5724-Y49 5724-Y54 5724-Y55 5655-Y21
Copyright IBM Corp. 1988, 2017.  All Rights Reserved.

Type 'help' for a list of available commands.
Type 'help' followed by a command name for more
information on commands.

CPLEX> Logfile 'cplex.log' closed.
Logfile 'C:\Users\llavi\Desktop\test919\logs\tmp3x7voja6.cplex.log' open.
CPLEX> New value for parallel optimization mode: -1
CPLEX> New value for mixed integer optimality gap tolerance: 0.01
CPLEX> New value for integrality tolerance: 1e-09
CPLEX> New value for feasibility tolerance: 0.01
CPLEX> New value for deterministic time limit in ticks: 75000
CPLEX> Problem 'C:\Users\llavi\Desktop\test919\logs\tmpbx5_nfok.pyomo.lp' read.
Read time = 0.08 sec. (3.03 ticks)
CPLEX> Problem name         : C:\Users\llavi\Desktop\test919\logs\tmpbx5_nfok.pyomo.lp
Objective sense      : Minimize
Variables            :   26465  [Nneg: 1,  Box: 22000,  Free: 4464]
Objective nonzeros   :    2496
Linear constraints   :   27515  [Less: 14006,  Greater: 4416,  Equal: 9093]
  Nonzeros           :   89171
  RHS nonzeros       :   12268

Variables            : Min LB: -5000.000        Max UB: 1000000.       
Objective nonzeros   : Min   : 15.73158         Max   : 124.0997       
Linear constraints   :
  Nonzeros           : Min   : 0.8500000        Max   : 3000.000       
  RHS nonzeros       : Min   : 0.05833333       Max   : 5000.000       
CPLEX> CPXPARAM_Simplex_Tolerances_Feasibility          0.01
CPXPARAM_Parallel                                -1
CPXPARAM_DetTimeLimit                            75000
CPXPARAM_MIP_Tolerances_MIPGap                   0.01
CPXPARAM_MIP_Tolerances_Integrality              1.0000000000000001e-09
Parallel mode: opportunistic, using up to 4 threads for concurrent optimization.
Tried aggregator 1 time.
LP Presolve eliminated 21401 rows and 15892 columns.
Aggregator did 723 substitutions.
Reduced LP has 5391 rows, 9850 columns, and 31758 nonzeros.
Presolve time = 0.03 sec. (22.46 ticks)

Iteration log . . .
Iteration:     1   Dual objective     =             0.000000
Perturbation started.
Iteration:   101   Dual objective     =             0.000000
Iteration:   357   Dual objective     =             1.363637
Iteration:   632   Dual objective     =             1.969730
Iteration:   954   Dual objective     =             2.149451
Iteration:  1161   Dual objective     =             2.267550
Iteration:  1520   Dual objective     =             2.330297
Iteration:  1828   Dual objective     =             2.363560
Iteration:  2107   Dual objective     =             2.383225
Iteration:  2406   Dual objective     =             2.392455
Iteration:  2707   Dual objective     =             2.403860
Iteration:  3078   Dual objective     =             2.414961
Iteration:  3523   Dual objective     =             2.424165
Iteration:  3903   Dual objective     =          2353.696638
Iteration:  4295   Dual objective     =          7377.916637
Removing perturbation.

Dual simplex solved model.


Dual simplex - Optimal:  Objective =  7.3754714546e+03
Solution time =    0.14 sec.  Iterations = 4434 (0)
Deterministic time = 93.91 ticks  (666.05 ticks/sec)

CPLEX> Solution written to file 'C:\Users\llavi\Desktop\test919\logs\tmp9_y6id7g.cplex.sol'.
CPLEX> Exporting results... 
...storage offer mitigation file created
Converting model to MPEC...
...converted
NOTE: initial MIP solve with only storage competitive to get feasible solution
Solving...

Welcome to IBM(R) ILOG(R) CPLEX(R) Interactive Optimizer 12.8.0.0
  with Simplex, Mixed Integer & Barrier Optimizers
5725-A06 5725-A29 5724-Y48 5724-Y49 5724-Y54 5724-Y55 5655-Y21
Copyright IBM Corp. 1988, 2017.  All Rights Reserved.

Type 'help' for a list of available commands.
Type 'help' followed by a command name for more
information on commands.

CPLEX> Logfile 'cplex.log' closed.
Logfile 'C:\Users\llavi\Desktop\test919\logs\tmp7ar4swte.cplex.log' open.
CPLEX> New value for parallel optimization mode: -1
CPLEX> New value for mixed integer optimality gap tolerance: 0.01
CPLEX> New value for integrality tolerance: 1e-09
CPLEX> New value for feasibility tolerance: 0.01
CPLEX> New value for deterministic time limit in ticks: 75000
CPLEX> Problem 'C:\Users\llavi\Desktop\test919\logs\tmppd5ch9m6.pyomo.lp' read.
Read time = 0.23 sec. (13.96 ticks)
CPLEX> Problem name         : C:\Users\llavi\Desktop\test919\logs\tmppd5ch9m6.pyomo.lp
Objective sense      : Maximize
Variables            :   53805  [Nneg: 1,  Box: 22000,  Free: 4464,
                                 Binary: 27340]
Objective nonzeros   :    9075
Linear constraints   :  123205  [Less: 41346,  Greater: 59096,  Equal: 22763]
  Nonzeros           :  291702
  RHS nonzeros       :   67402

Variables            : Min LB: -5000.000        Max UB: 1000000.       
Objective nonzeros   : Min   : 0.05833333       Max   : 2500.000       
Linear constraints   :
  Nonzeros           : Min   : 0.05833333       Max   : 1000000.       
  RHS nonzeros       : Min   : 0.05833333       Max   : 1000000.       
CPLEX> CPXPARAM_Simplex_Tolerances_Feasibility          0.01
CPXPARAM_Parallel                                -1
CPXPARAM_DetTimeLimit                            75000
CPXPARAM_MIP_Tolerances_MIPGap                   0.01
CPXPARAM_MIP_Tolerances_Integrality              1.0000000000000001e-09
Tried aggregator 3 times.
MIP Presolve eliminated 88690 rows and 19037 columns.
MIP Presolve added 3353 rows and 0 columns.
MIP Presolve modified 23866 coefficients.
Aggregator did 12995 substitutions.
Reduced MIP has 24873 rows, 21216 columns, and 70909 nonzeros.
Reduced MIP has 8406 binaries, 0 generals, 0 SOSs, and 0 indicators.
Presolve time = 0.30 sec. (165.61 ticks)
Probing fixed 417 vars, tightened 2937 bounds.
Probing time = 3.22 sec. (923.90 ticks)
Tried aggregator 2 times.
MIP Presolve eliminated 939 rows and 835 columns.
MIP Presolve modified 2232 coefficients.
Aggregator did 34 substitutions.
Reduced MIP has 23900 rows, 20347 columns, and 68089 nonzeros.
Reduced MIP has 7989 binaries, 0 generals, 0 SOSs, and 0 indicators.
Presolve time = 0.09 sec. (55.66 ticks)
Probing time = 0.06 sec. (15.03 ticks)
Clique table members: 6554.
MIP emphasis: balance optimality and feasibility.
MIP search method: dynamic search.
Parallel mode: opportunistic, using up to 4 threads.
Root relaxation solution time = 0.36 sec. (369.65 ticks)

        Nodes                                         Cuts/
   Node  Left     Objective  IInf  Best Integer    Best Bound    ItCnt     Gap

      0     0        0.0000   619                      0.0000     2722         
*     0+    0                            0.0000        0.0000             0.00%
      0     0        cutoff              0.0000        0.0000     2722    0.00%
Elapsed time = 5.27 sec. (1901.01 ticks, tree = 0.01 MB, solutions = 1)

Root node processing (before b&c):
  Real time             =    5.28 sec. (1903.28 ticks)
Parallel b&c, 4 threads:
  Real time             =    0.00 sec. (0.00 ticks)
  Sync time (average)   =    0.00 sec.
  Wait time (average)   =    0.00 sec.
                          ------------
Total (root+branch&cut) =    5.28 sec. (1903.28 ticks)

Solution pool: 1 solution saved.

MIP - Integer optimal solution:  Objective =  5.6843418861e-10
Solution time =    5.28 sec.  Iterations = 2722  Nodes = 0
Deterministic time = 1903.43 ticks  (360.43 ticks/sec)

CPLEX> Incumbent solution written to file 'C:\Users\llavi\Desktop\test919\logs\tmph24pcx1_.cplex.sol'.
CPLEX> NOTE: no warmstart specified for MIP iteration, default behavior is true
NOTE: resolving with all competitive generators using storage-only solution to warmstart
Solving...

Welcome to IBM(R) ILOG(R) CPLEX(R) Interactive Optimizer 12.8.0.0
  with Simplex, Mixed Integer & Barrier Optimizers
5725-A06 5725-A29 5724-Y48 5724-Y49 5724-Y54 5724-Y55 5655-Y21
Copyright IBM Corp. 1988, 2017.  All Rights Reserved.

Type 'help' for a list of available commands.
Type 'help' followed by a command name for more
information on commands.

CPLEX> Logfile 'cplex.log' closed.
Logfile 'C:\Users\llavi\Desktop\test919\logs\tmp_av0rd3g.cplex.log' open.
CPLEX> New value for parallel optimization mode: -1
CPLEX> New value for mixed integer optimality gap tolerance: 0.01
CPLEX> New value for integrality tolerance: 1e-09
CPLEX> New value for feasibility tolerance: 0.01
CPLEX> New value for deterministic time limit in ticks: 75000
CPLEX> Problem 'C:\Users\llavi\Desktop\test919\logs\tmpx6zf0u3_.pyomo.lp' read.
Read time = 0.27 sec. (13.98 ticks)
CPLEX> MIP start file 'C:\Users\llavi\Desktop\test919\logs\tmpoifsd_iv.cplex.mst' read.
CPLEX> Problem name         : C:\Users\llavi\Desktop\test919\logs\tmpx6zf0u3_.pyomo.lp
Objective sense      : Maximize
Variables            :   54525  [Nneg: 1,  Box: 22720,  Free: 4464,
                                 Binary: 27340]
Objective nonzeros   :    9771
Linear constraints   :  123205  [Less: 41346,  Greater: 59096,  Equal: 22763]
  Nonzeros           :  291702
  RHS nonzeros       :   67402

Variables            : Min LB: -5000.000        Max UB: 1000000.       
Objective nonzeros   : Min   : 0.05833333       Max   : 2500.000       
Linear constraints   :
  Nonzeros           : Min   : 0.05833333       Max   : 1000000.       
  RHS nonzeros       : Min   : 0.05833333       Max   : 1000000.       
CPLEX> CPXPARAM_Simplex_Tolerances_Feasibility          0.01
CPXPARAM_Parallel                                -1
CPXPARAM_DetTimeLimit                            75000
CPXPARAM_MIP_Tolerances_MIPGap                   0.01
CPXPARAM_MIP_Tolerances_Integrality              1.0000000000000001e-09
Warning:  No solution found from 1 MIP starts.
Retaining values of one MIP start for possible repair.
Tried aggregator 3 times.
MIP Presolve eliminated 88690 rows and 19757 columns.
MIP Presolve added 3353 rows and 0 columns.
MIP Presolve modified 23866 coefficients.
Aggregator did 12995 substitutions.
Reduced MIP has 24873 rows, 21216 columns, and 70909 nonzeros.
Reduced MIP has 8406 binaries, 0 generals, 0 SOSs, and 0 indicators.
Presolve time = 0.30 sec. (165.97 ticks)
Probing fixed 417 vars, tightened 2937 bounds.
Probing time = 3.17 sec. (923.90 ticks)
Tried aggregator 2 times.
MIP Presolve eliminated 939 rows and 835 columns.
MIP Presolve modified 2232 coefficients.
Aggregator did 34 substitutions.
Reduced MIP has 23900 rows, 20347 columns, and 68089 nonzeros.
Reduced MIP has 7989 binaries, 0 generals, 0 SOSs, and 0 indicators.
Presolve time = 0.11 sec. (55.67 ticks)
Probing time = 0.05 sec. (15.03 ticks)
Clique table members: 6554.
MIP emphasis: balance optimality and feasibility.
MIP search method: dynamic search.
Parallel mode: opportunistic, using up to 4 threads.
Root relaxation solution time = 0.36 sec. (195.27 ticks)

        Nodes                                         Cuts/
   Node  Left     Objective  IInf  Best Integer    Best Bound    ItCnt     Gap

      0     0    99740.3193  1604                  99740.3193     2966         
      0     0    93984.6655   655                   Cuts: 554     3290         
      0     0    93313.6477   551                   Cuts: 271     3450         
      0     0    93313.6477   506                   Cuts: 111     3516         
      0     0    93313.6477   492                    Cuts: 95     3577         
      0     0    93313.6477   457                   Cuts: 100     3638         
      0     0    93313.6477   424                    Cuts: 89     3688         
      0     0    93295.5586   412                    Cuts: 58     3714         
      0     0    93295.5586   398                    Cuts: 49     3737         
      0     0    90875.2279   389                    Cuts: 53     3829         
      0     0    90875.2279   394                    Cuts: 40     3844         
      0     0    90875.2279   392                    Cuts: 40     3853         
Repair heuristic found nothing.
      0     3    74841.0735   373                  75762.0743     3915         
Elapsed time = 27.19 sec. (10011.81 ticks, tree = 0.01 MB, solutions = 0)
     67    15    50901.3643   319                  62310.1137     4355         
    143    58    25118.6482   277                  62310.1137     5488         
    239   132    10858.7278   266                  62310.1137     6644         
    329   197    -7377.9522   255                  62310.1137     6943         
    421   245      624.2112   246                  62310.1137     7542         
    543   429     8241.4635   236                  62310.1137     8172         
    728   596     8241.4635   235                  62310.1137     8222         
    896   748     5438.2631   227                  62310.1137     8247         
   1056   888     5438.2631   214                  62310.1137     8278         
   1428  1197    20540.7884   229                  62310.1137     9809         
Elapsed time = 32.09 sec. (13139.82 ticks, tree = 10.44 MB, solutions = 0)
   1570  1214   -77078.6316    10                  62310.1137    13100         
   1768  1297  -380284.4808    74                  62310.1137    13990         
   2019  1406    12260.3109   201                  62310.1137    14600         
   2325  1747    16857.7143   151                  62310.1137    17809         
   2561  1819     2826.0811   137                  62310.1137    18182         
   2743  1917   -52017.8176    42                  62310.1137    18388         
   2882  1943    12059.9097   273                  62310.1137    19224         
   3146  2193     5223.6678   244                  62310.1137    20126         
   3412  2569      256.1599   212                  62310.1137    21658         
   3701  2783     6630.9700   259                  62310.1137    23383         
Elapsed time = 47.31 sec. (22745.83 ticks, tree = 24.31 MB, solutions = 0)
   4016  2966    -5097.6201   257                  62310.1137    23665         
   4295  3102    17104.9979   251                  62310.1137    23975         
   4574  3352     6804.2606   203                  62310.1137    25263         
   4765  3378    20556.2015   250                  62310.1137    24980         
   4922  3526    15412.0433   180                  62310.1137    25193         
   4941  2579   -21586.0472     4                  62310.1137    22831         
   4947  2578    infeasible                        62310.1137    22831         
   4963  2587    infeasible                        62310.1137    23060         
   4975  2588    infeasible                        62310.1137    23334         
   4986  3388    infeasible                        62310.1137    25879         
Elapsed time = 56.70 sec. (33252.23 ticks, tree = 40.40 MB, solutions = 0)
   4992  3213    infeasible                        62310.1137    25065         
   5026  3243     9246.5575   264                  62310.1137    25424         
   5149  3359      786.1884   232                  62310.1137    25560         
   5261  3473    11972.5262   261                  62310.1137    25981         
   5436  3646   -15527.6974   283                  62310.1137    26310         
   5569  3770     3610.9190   248                  62310.1137    26838         
   5732  3930     1532.1860   178                  62310.1137    26981         
   5755  3430    infeasible                        62310.1137    25845         
   5756  5077    12983.7025    27                  16967.4330    36540         
   6023   203    -6309.6123     3                  10082.1352    38477         
Elapsed time = 85.53 sec. (51453.68 ticks, tree = 2.86 MB, solutions = 0)
*  6106   208      integral     0        0.0000    10082.1352    38696     --- 
   6259    72        cutoff              0.0000    10082.1352    39979     --- 
   6368   105      770.0462     1        0.0000    10082.1352    41026     --- 
   6413   104        cutoff              0.0000    10082.1352    41033     --- 
   6468   104      939.6013     2        0.0000    10082.1352    41066     --- 
   6512   105       39.9665     2        0.0000    10082.1352    41085     --- 
   6554   104      770.0462     1        0.0000    10082.1352    41111     --- 
   6589   105       39.9665     4        0.0000    10082.1352    41131     --- 
   6623   105      939.6013     2        0.0000    10082.1352    41141     --- 
   6654   105       39.9665     2        0.0000    10082.1352    41157     --- 
   6686   105      939.6013     2        0.0000    10082.1352    41169     --- 
Elapsed time = 98.20 sec. (61235.70 ticks, tree = 0.36 MB, solutions = 2)
   6710   107        cutoff              0.0000    10082.1352    41202     --- 
   6734   109       39.9665     2        0.0000    10082.1352    41227     --- 
   6764   108     5329.7168     1        0.0000    10082.1352    41223     --- 
   6797   115        cutoff              0.0000    10082.1352    41516     --- 
   6815   114       39.9665     2        0.0000    10082.1352    41527     --- 
   6838   122       39.9665     2        0.0000    10082.1352    41563     --- 
   6859   125        cutoff              0.0000    10082.1352    41587     --- 
   6891   123     5329.7168     1        0.0000    10082.1352    41569     --- 
   6914   142       39.9665     2        0.0000    10082.1352    41699     --- 
   6927   142       39.9665     2        0.0000    10082.1352    41704     --- 
Elapsed time = 109.94 sec. (71127.35 ticks, tree = 1.32 MB, solutions = 2)
   6953   151       39.9665     1        0.0000    10082.1352    41773     --- 
   6969   147     5329.7168     1        0.0000    10082.1352    41715     --- 
   6996   161     5329.7168     3        0.0000    10082.1352    41787     --- 
   7009   171      939.6013     2        0.0000    10082.1352    41825     --- 

Cover cuts applied:  6
Implied bound cuts applied:  5
Flow cuts applied:  234
Mixed integer rounding cuts applied:  13
Gomory fractional cuts applied:  38

Root node processing (before b&c):
  Real time             =   26.94 sec. (9995.89 ticks)
Parallel b&c, 4 threads:
  Real time             =   87.20 sec. (65432.15 ticks)
  Sync time (average)   =    0.43 sec.
  Wait time (average)   =    0.03 sec.
                          ------------
Total (root+branch&cut) =  114.14 sec. (75428.04 ticks)

Solution pool: 2 solutions saved.

MIP - Deterministic time limit exceeded, integer feasible:  Objective =  4.5838532969e-10
Current MIP best bound =  1.0082135233e+04 (gap = 10082.1, 1.8e+15%)
Solution time =  114.14 sec.  Iterations = 41836  Nodes = 7010 (173)
Deterministic time = 75428.20 ticks  (660.84 ticks/sec)

CPLEX> Incumbent solution written to file 'C:\Users\llavi\Desktop\test919\logs\tmpmawdbr33.cplex.sol'.
CPLEX> Exporting results... 
